NAME 
OBJSENSE MAX
ROWS
 N  OBJ
 L  packing[0]
 L  packing[1]
 L  packing[2]
 L  packing[3]
 L  packing[4]
 L  packing[5]
 L  packing[6]
 L  packing[7]
 L  packing[8]
 L  packing[9]
 L  packing[10]
 L  packing[11]
 L  packing[12]
 L  packing[13]
 L  packing[14]
 L  packing[15]
 L  packing[16]
 L  packing[17]
 L  packing[18]
 L  packing[19]
 L  packing[20]
 L  packing[21]
 L  packing[22]
 L  packing[23]
 L  packing[24]
 L  packing[25]
 L  packing[26]
 L  packing[27]
 L  packing[28]
 L  packing[29]
 L  packing[30]
 L  packing[31]
 L  packing[32]
 L  packing[33]
 L  packing[34]
 L  packing[35]
 L  packing[36]
 L  packing[37]
 L  packing[38]
 L  packing[39]
 L  packing[40]
 L  packing[41]
 L  packing[42]
 L  packing[43]
 L  packing[44]
 L  packing[45]
 L  packing[46]
 L  packing[47]
 L  packing[48]
 L  packing[49]
 L  R55     
COLUMNS
    MARKER    'MARKER'                 'INTORG'
    x[1]      OBJ       181
    x[1]      packing[0]  72
    x[1]      packing[2]  60
    x[1]      packing[3]  51
    x[1]      packing[5]  62
    x[1]      packing[6]  178
    x[1]      packing[8]  109
    x[1]      packing[10]  150
    x[1]      packing[12]  12
    x[1]      packing[13]  15
    x[1]      packing[14]  99
    x[1]      packing[15]  114
    x[1]      packing[16]  36
    x[1]      packing[17]  117
    x[1]      packing[19]  50
    x[1]      packing[20]  79
    x[1]      packing[21]  144
    x[1]      packing[22]  22
    x[1]      packing[24]  119
    x[1]      packing[25]  146
    x[1]      packing[26]  137
    x[1]      packing[28]  37
    x[1]      packing[29]  11
    x[1]      packing[30]  160
    x[1]      packing[31]  198
    x[1]      packing[34]  26
    x[1]      packing[35]  8
    x[1]      packing[36]  128
    x[1]      packing[37]  8
    x[1]      packing[38]  86
    x[1]      packing[39]  157
    x[1]      packing[40]  100
    x[1]      packing[41]  143
    x[1]      packing[42]  45
    x[1]      packing[43]  8
    x[1]      packing[44]  176
    x[1]      packing[46]  77
    x[1]      packing[47]  190
    x[1]      packing[48]  107
    x[1]      packing[49]  98
    x[1]      R55       1
    x[2]      OBJ       27
    x[2]      packing[0]  33
    x[2]      packing[3]  96
    x[2]      packing[5]  82
    x[2]      packing[6]  37
    x[2]      packing[7]  70
    x[2]      packing[8]  110
    x[2]      packing[9]  23
    x[2]      packing[10]  187
    x[2]      packing[12]  31
    x[2]      packing[14]  116
    x[2]      packing[15]  2
    x[2]      packing[16]  31
    x[2]      packing[19]  56
    x[2]      packing[20]  114
    x[2]      packing[22]  65
    x[2]      packing[24]  193
    x[2]      packing[25]  185
    x[2]      packing[26]  70
    x[2]      packing[27]  27
    x[2]      packing[28]  159
    x[2]      packing[29]  60
    x[2]      packing[30]  131
    x[2]      packing[31]  157
    x[2]      packing[33]  36
    x[2]      packing[34]  116
    x[2]      packing[35]  148
    x[2]      packing[36]  65
    x[2]      packing[37]  96
    x[2]      packing[38]  148
    x[2]      packing[39]  145
    x[2]      packing[41]  125
    x[2]      packing[42]  145
    x[2]      packing[44]  177
    x[2]      packing[46]  93
    x[2]      packing[47]  127
    x[2]      packing[48]  165
    x[2]      packing[49]  54
    x[3]      OBJ       82
    x[3]      packing[0]  62
    x[3]      packing[1]  141
    x[3]      packing[3]  35
    x[3]      packing[4]  21
    x[3]      packing[5]  99
    x[3]      packing[6]  62
    x[3]      packing[7]  186
    x[3]      packing[8]  103
    x[3]      packing[10]  156
    x[3]      packing[11]  117
    x[3]      packing[12]  68
    x[3]      packing[13]  18
    x[3]      packing[15]  185
    x[3]      packing[16]  122
    x[3]      packing[17]  105
    x[3]      packing[18]  27
    x[3]      packing[19]  152
    x[3]      packing[20]  55
    x[3]      packing[24]  51
    x[3]      packing[25]  66
    x[3]      packing[27]  124
    x[3]      packing[28]  65
    x[3]      packing[29]  109
    x[3]      packing[31]  42
    x[3]      packing[33]  185
    x[3]      packing[34]  8
    x[3]      packing[35]  173
    x[3]      packing[37]  122
    x[3]      packing[38]  126
    x[3]      packing[39]  17
    x[3]      packing[40]  99
    x[3]      packing[41]  199
    x[3]      packing[43]  102
    x[3]      packing[46]  90
    x[3]      packing[47]  132
    x[3]      packing[48]  124
    x[3]      packing[49]  53
    x[4]      OBJ       62
    x[4]      packing[0]  42
    x[4]      packing[1]  85
    x[4]      packing[2]  37
    x[4]      packing[3]  185
    x[4]      packing[5]  138
    x[4]      packing[6]  33
    x[4]      packing[7]  167
    x[4]      packing[8]  52
    x[4]      packing[9]  120
    x[4]      packing[10]  19
    x[4]      packing[11]  110
    x[4]      packing[12]  164
    x[4]      packing[13]  30
    x[4]      packing[14]  160
    x[4]      packing[15]  94
    x[4]      packing[16]  173
    x[4]      packing[17]  40
    x[4]      packing[18]  176
    x[4]      packing[20]  127
    x[4]      packing[21]  34
    x[4]      packing[22]  50
    x[4]      packing[24]  13
    x[4]      packing[26]  109
    x[4]      packing[27]  13
    x[4]      packing[28]  10
    x[4]      packing[30]  143
    x[4]      packing[31]  143
    x[4]      packing[32]  90
    x[4]      packing[33]  10
    x[4]      packing[34]  176
    x[4]      packing[35]  40
    x[4]      packing[38]  59
    x[4]      packing[39]  107
    x[4]      packing[40]  162
    x[4]      packing[41]  142
    x[4]      packing[44]  185
    x[4]      packing[46]  156
    x[4]      packing[47]  121
    x[4]      packing[48]  168
    x[4]      packing[49]  191
    x[5]      OBJ       77
    x[5]      packing[2]  172
    x[5]      packing[3]  157
    x[5]      packing[4]  151
    x[5]      packing[5]  124
    x[5]      packing[6]  55
    x[5]      packing[7]  90
    x[5]      packing[8]  108
    x[5]      packing[9]  15
    x[5]      packing[10]  163
    x[5]      packing[11]  4
    x[5]      packing[12]  133
    x[5]      packing[13]  46
    x[5]      packing[14]  46
    x[5]      packing[15]  127
    x[5]      packing[16]  121
    x[5]      packing[17]  39
    x[5]      packing[18]  19
    x[5]      packing[19]  91
    x[5]      packing[21]  1
    x[5]      packing[22]  135
    x[5]      packing[23]  82
    x[5]      packing[25]  84
    x[5]      packing[26]  5
    x[5]      packing[27]  175
    x[5]      packing[30]  53
    x[5]      packing[31]  108
    x[5]      packing[33]  84
    x[5]      packing[34]  9
    x[5]      packing[35]  137
    x[5]      packing[36]  168
    x[5]      packing[39]  198
    x[5]      packing[40]  95
    x[5]      packing[42]  115
    x[5]      packing[43]  95
    x[5]      packing[44]  83
    x[5]      packing[45]  184
    x[5]      packing[47]  86
    x[5]      packing[48]  191
    x[5]      packing[49]  115
    x[6]      OBJ       179
    x[6]      packing[2]  130
    x[6]      packing[3]  12
    x[6]      packing[4]  92
    x[6]      packing[5]  76
    x[6]      packing[6]  107
    x[6]      packing[7]  106
    x[6]      packing[9]  31
    x[6]      packing[10]  101
    x[6]      packing[11]  142
    x[6]      packing[12]  198
    x[6]      packing[13]  95
    x[6]      packing[14]  184
    x[6]      packing[15]  3
    x[6]      packing[16]  104
    x[6]      packing[17]  186
    x[6]      packing[20]  119
    x[6]      packing[21]  57
    x[6]      packing[22]  161
    x[6]      packing[23]  119
    x[6]      packing[24]  191
    x[6]      packing[25]  193
    x[6]      packing[26]  61
    x[6]      packing[27]  191
    x[6]      packing[28]  71
    x[6]      packing[29]  34
    x[6]      packing[30]  158
    x[6]      packing[31]  194
    x[6]      packing[32]  63
    x[6]      packing[33]  92
    x[6]      packing[34]  185
    x[6]      packing[35]  60
    x[6]      packing[38]  5
    x[6]      packing[39]  64
    x[6]      packing[40]  158
    x[6]      packing[41]  113
    x[6]      packing[42]  86
    x[6]      packing[44]  116
    x[6]      packing[45]  160
    x[6]      packing[46]  121
    x[6]      packing[47]  115
    x[6]      packing[48]  143
    x[6]      packing[49]  42
    x[6]      R55       1
    x[7]      OBJ       47
    x[7]      packing[1]  109
    x[7]      packing[2]  38
    x[7]      packing[4]  25
    x[7]      packing[6]  86
    x[7]      packing[7]  68
    x[7]      packing[8]  162
    x[7]      packing[10]  91
    x[7]      packing[11]  64
    x[7]      packing[13]  113
    x[7]      packing[14]  24
    x[7]      packing[15]  159
    x[7]      packing[16]  73
    x[7]      packing[17]  90
    x[7]      packing[18]  72
    x[7]      packing[19]  68
    x[7]      packing[20]  195
    x[7]      packing[21]  69
    x[7]      packing[22]  193
    x[7]      packing[23]  193
    x[7]      packing[24]  166
    x[7]      packing[25]  124
    x[7]      packing[26]  101
    x[7]      packing[27]  7
    x[7]      packing[28]  74
    x[7]      packing[29]  152
    x[7]      packing[30]  14
    x[7]      packing[31]  30
    x[7]      packing[32]  198
    x[7]      packing[33]  42
    x[7]      packing[34]  130
    x[7]      packing[35]  95
    x[7]      packing[36]  192
    x[7]      packing[39]  131
    x[7]      packing[41]  107
    x[7]      packing[43]  189
    x[7]      packing[45]  18
    x[7]      packing[46]  178
    x[8]      OBJ       81
    x[8]      packing[0]  115
    x[8]      packing[1]  73
    x[8]      packing[3]  40
    x[8]      packing[4]  113
    x[8]      packing[8]  167
    x[8]      packing[9]  7
    x[8]      packing[10]  53
    x[8]      packing[11]  51
    x[8]      packing[12]  29
    x[8]      packing[13]  95
    x[8]      packing[15]  52
    x[8]      packing[17]  83
    x[8]      packing[18]  72
    x[8]      packing[19]  185
    x[8]      packing[20]  86
    x[8]      packing[21]  76
    x[8]      packing[22]  77
    x[8]      packing[23]  100
    x[8]      packing[24]  139
    x[8]      packing[25]  16
    x[8]      packing[26]  61
    x[8]      packing[27]  74
    x[8]      packing[28]  135
    x[8]      packing[29]  20
    x[8]      packing[30]  25
    x[8]      packing[31]  72
    x[8]      packing[32]  98
    x[8]      packing[34]  15
    x[8]      packing[37]  171
    x[8]      packing[38]  90
    x[8]      packing[39]  10
    x[8]      packing[40]  156
    x[8]      packing[42]  131
    x[8]      packing[43]  91
    x[8]      packing[45]  91
    x[8]      packing[46]  70
    x[8]      packing[48]  24
    x[9]      OBJ       132
    x[9]      packing[0]  15
    x[9]      packing[2]  187
    x[9]      packing[3]  84
    x[9]      packing[4]  77
    x[9]      packing[5]  129
    x[9]      packing[6]  183
    x[9]      packing[10]  72
    x[9]      packing[11]  81
    x[9]      packing[12]  20
    x[9]      packing[13]  73
    x[9]      packing[14]  77
    x[9]      packing[15]  118
    x[9]      packing[16]  31
    x[9]      packing[17]  145
    x[9]      packing[18]  129
    x[9]      packing[20]  78
    x[9]      packing[21]  14
    x[9]      packing[22]  111
    x[9]      packing[23]  54
    x[9]      packing[25]  27
    x[9]      packing[26]  15
    x[9]      packing[27]  75
    x[9]      packing[28]  10
    x[9]      packing[29]  45
    x[9]      packing[30]  72
    x[9]      packing[31]  129
    x[9]      packing[32]  77
    x[9]      packing[34]  171
    x[9]      packing[35]  146
    x[9]      packing[36]  53
    x[9]      packing[37]  97
    x[9]      packing[39]  37
    x[9]      packing[40]  50
    x[9]      packing[41]  118
    x[9]      packing[44]  125
    x[9]      packing[45]  84
    x[9]      packing[48]  159
    x[9]      packing[49]  108
    x[9]      R55       1
    x[10]     OBJ       88
    x[10]     packing[0]  115
    x[10]     packing[1]  55
    x[10]     packing[2]  115
    x[10]     packing[3]  167
    x[10]     packing[4]  188
    x[10]     packing[5]  140
    x[10]     packing[6]  199
    x[10]     packing[7]  162
    x[10]     packing[9]  72
    x[10]     packing[10]  125
    x[10]     packing[12]  35
    x[10]     packing[13]  129
    x[10]     packing[14]  94
    x[10]     packing[15]  170
    x[10]     packing[16]  38
    x[10]     packing[17]  8
    x[10]     packing[18]  53
    x[10]     packing[19]  85
    x[10]     packing[20]  68
    x[10]     packing[21]  13
    x[10]     packing[22]  81
    x[10]     packing[23]  119
    x[10]     packing[24]  32
    x[10]     packing[25]  142
    x[10]     packing[27]  34
    x[10]     packing[28]  10
    x[10]     packing[29]  183
    x[10]     packing[30]  74
    x[10]     packing[31]  24
    x[10]     packing[32]  24
    x[10]     packing[33]  199
    x[10]     packing[35]  184
    x[10]     packing[36]  66
    x[10]     packing[38]  33
    x[10]     packing[39]  129
    x[10]     packing[41]  115
    x[10]     packing[42]  112
    x[10]     packing[43]  44
    x[10]     packing[44]  24
    x[10]     packing[46]  44
    x[10]     packing[48]  16
    x[11]     OBJ       28
    x[11]     packing[0]  74
    x[11]     packing[1]  154
    x[11]     packing[4]  8
    x[11]     packing[5]  39
    x[11]     packing[6]  192
    x[11]     packing[7]  164
    x[11]     packing[9]  85
    x[11]     packing[10]  196
    x[11]     packing[12]  89
    x[11]     packing[14]  111
    x[11]     packing[15]  91
    x[11]     packing[16]  55
    x[11]     packing[18]  19
    x[11]     packing[19]  90
    x[11]     packing[20]  188
    x[11]     packing[21]  155
    x[11]     packing[22]  66
    x[11]     packing[23]  41
    x[11]     packing[25]  192
    x[11]     packing[26]  174
    x[11]     packing[27]  86
    x[11]     packing[28]  114
    x[11]     packing[30]  112
    x[11]     packing[31]  138
    x[11]     packing[32]  83
    x[11]     packing[33]  54
    x[11]     packing[35]  136
    x[11]     packing[36]  150
    x[11]     packing[37]  178
    x[11]     packing[38]  60
    x[11]     packing[40]  99
    x[11]     packing[41]  45
    x[11]     packing[42]  107
    x[11]     packing[43]  111
    x[11]     packing[44]  85
    x[11]     packing[46]  144
    x[12]     OBJ       95
    x[12]     packing[0]  159
    x[12]     packing[1]  162
    x[12]     packing[3]  130
    x[12]     packing[4]  52
    x[12]     packing[5]  175
    x[12]     packing[7]  177
    x[12]     packing[8]  88
    x[12]     packing[9]  70
    x[12]     packing[12]  167
    x[12]     packing[13]  37
    x[12]     packing[14]  145
    x[12]     packing[15]  177
    x[12]     packing[16]  145
    x[12]     packing[17]  153
    x[12]     packing[18]  9
    x[12]     packing[19]  22
    x[12]     packing[21]  188
    x[12]     packing[22]  105
    x[12]     packing[23]  133
    x[12]     packing[27]  197
    x[12]     packing[29]  53
    x[12]     packing[30]  23
    x[12]     packing[32]  84
    x[12]     packing[33]  19
    x[12]     packing[34]  37
    x[12]     packing[35]  190
    x[12]     packing[37]  156
    x[12]     packing[39]  194
    x[12]     packing[41]  66
    x[12]     packing[42]  196
    x[12]     packing[43]  135
    x[12]     packing[44]  135
    x[12]     packing[45]  145
    x[12]     packing[46]  32
    x[12]     packing[48]  58
    x[12]     packing[49]  19
    x[13]     OBJ       166
    x[13]     packing[0]  54
    x[13]     packing[1]  98
    x[13]     packing[2]  101
    x[13]     packing[4]  37
    x[13]     packing[5]  136
    x[13]     packing[6]  102
    x[13]     packing[8]  104
    x[13]     packing[10]  14
    x[13]     packing[11]  173
    x[13]     packing[12]  170
    x[13]     packing[13]  178
    x[13]     packing[14]  199
    x[13]     packing[15]  107
    x[13]     packing[16]  23
    x[13]     packing[17]  126
    x[13]     packing[18]  187
    x[13]     packing[19]  148
    x[13]     packing[20]  189
    x[13]     packing[22]  29
    x[13]     packing[23]  196
    x[13]     packing[24]  114
    x[13]     packing[25]  45
    x[13]     packing[26]  31
    x[13]     packing[27]  54
    x[13]     packing[28]  90
    x[13]     packing[29]  97
    x[13]     packing[30]  93
    x[13]     packing[31]  81
    x[13]     packing[34]  37
    x[13]     packing[35]  93
    x[13]     packing[37]  120
    x[13]     packing[38]  93
    x[13]     packing[39]  53
    x[13]     packing[40]  172
    x[13]     packing[41]  166
    x[13]     packing[43]  57
    x[13]     packing[45]  84
    x[13]     packing[47]  129
    x[13]     packing[49]  29
    x[14]     OBJ       140
    x[14]     packing[1]  145
    x[14]     packing[2]  84
    x[14]     packing[3]  132
    x[14]     packing[4]  39
    x[14]     packing[6]  21
    x[14]     packing[7]  88
    x[14]     packing[8]  189
    x[14]     packing[9]  14
    x[14]     packing[11]  56
    x[14]     packing[12]  159
    x[14]     packing[13]  103
    x[14]     packing[14]  134
    x[14]     packing[15]  145
    x[14]     packing[16]  143
    x[14]     packing[17]  184
    x[14]     packing[18]  59
    x[14]     packing[21]  42
    x[14]     packing[22]  41
    x[14]     packing[24]  38
    x[14]     packing[25]  64
    x[14]     packing[27]  23
    x[14]     packing[28]  78
    x[14]     packing[29]  179
    x[14]     packing[31]  49
    x[14]     packing[32]  82
    x[14]     packing[34]  47
    x[14]     packing[35]  31
    x[14]     packing[37]  15
    x[14]     packing[39]  135
    x[14]     packing[40]  16
    x[14]     packing[44]  89
    x[14]     packing[45]  59
    x[14]     packing[46]  14
    x[14]     packing[47]  45
    x[14]     packing[48]  135
    x[15]     OBJ       106
    x[15]     packing[1]  25
    x[15]     packing[4]  146
    x[15]     packing[5]  109
    x[15]     packing[6]  160
    x[15]     packing[7]  14
    x[15]     packing[8]  61
    x[15]     packing[9]  66
    x[15]     packing[10]  144
    x[15]     packing[13]  147
    x[15]     packing[16]  25
    x[15]     packing[18]  139
    x[15]     packing[19]  63
    x[15]     packing[20]  18
    x[15]     packing[24]  135
    x[15]     packing[25]  156
    x[15]     packing[27]  44
    x[15]     packing[28]  122
    x[15]     packing[29]  120
    x[15]     packing[31]  157
    x[15]     packing[32]  39
    x[15]     packing[33]  80
    x[15]     packing[35]  187
    x[15]     packing[36]  69
    x[15]     packing[38]  41
    x[15]     packing[40]  79
    x[15]     packing[41]  153
    x[15]     packing[42]  191
    x[15]     packing[43]  187
    x[15]     packing[44]  37
    x[15]     packing[45]  96
    x[15]     packing[46]  104
    x[15]     packing[47]  43
    x[15]     packing[48]  22
    x[15]     packing[49]  137
    x[16]     OBJ       164
    x[16]     packing[0]  53
    x[16]     packing[1]  11
    x[16]     packing[2]  168
    x[16]     packing[3]  126
    x[16]     packing[4]  130
    x[16]     packing[5]  45
    x[16]     packing[6]  123
    x[16]     packing[7]  176
    x[16]     packing[8]  166
    x[16]     packing[9]  83
    x[16]     packing[10]  115
    x[16]     packing[11]  84
    x[16]     packing[12]  105
    x[16]     packing[13]  100
    x[16]     packing[14]  26
    x[16]     packing[16]  166
    x[16]     packing[17]  84
    x[16]     packing[20]  34
    x[16]     packing[21]  121
    x[16]     packing[22]  172
    x[16]     packing[23]  198
    x[16]     packing[29]  119
    x[16]     packing[30]  151
    x[16]     packing[31]  163
    x[16]     packing[32]  50
    x[16]     packing[33]  187
    x[16]     packing[34]  44
    x[16]     packing[36]  99
    x[16]     packing[37]  171
    x[16]     packing[38]  142
    x[16]     packing[39]  16
    x[16]     packing[40]  141
    x[16]     packing[41]  121
    x[16]     packing[42]  147
    x[16]     packing[43]  182
    x[16]     packing[44]  121
    x[16]     packing[45]  63
    x[16]     packing[47]  56
    x[16]     R55       1
    x[17]     OBJ       200
    x[17]     packing[3]  20
    x[17]     packing[4]  80
    x[17]     packing[5]  153
    x[17]     packing[6]  72
    x[17]     packing[9]  187
    x[17]     packing[11]  11
    x[17]     packing[12]  46
    x[17]     packing[13]  182
    x[17]     packing[14]  125
    x[17]     packing[15]  192
    x[17]     packing[16]  114
    x[17]     packing[17]  88
    x[17]     packing[18]  108
    x[17]     packing[19]  65
    x[17]     packing[20]  18
    x[17]     packing[21]  34
    x[17]     packing[22]  168
    x[17]     packing[23]  21
    x[17]     packing[24]  96
    x[17]     packing[25]  1
    x[17]     packing[26]  49
    x[17]     packing[27]  159
    x[17]     packing[30]  147
    x[17]     packing[31]  44
    x[17]     packing[32]  192
    x[17]     packing[33]  198
    x[17]     packing[34]  178
    x[17]     packing[36]  4
    x[17]     packing[37]  50
    x[17]     packing[38]  8
    x[17]     packing[39]  39
    x[17]     packing[41]  60
    x[17]     packing[42]  182
    x[17]     packing[43]  108
    x[17]     packing[45]  177
    x[17]     packing[46]  17
    x[17]     packing[47]  81
    x[17]     packing[48]  169
    x[17]     packing[49]  99
    x[17]     R55       1
    x[18]     OBJ       192
    x[18]     packing[0]  35
    x[18]     packing[2]  92
    x[18]     packing[3]  18
    x[18]     packing[4]  174
    x[18]     packing[6]  79
    x[18]     packing[7]  195
    x[18]     packing[8]  121
    x[18]     packing[9]  169
    x[18]     packing[11]  156
    x[18]     packing[12]  124
    x[18]     packing[13]  2
    x[18]     packing[16]  156
    x[18]     packing[17]  75
    x[18]     packing[18]  48
    x[18]     packing[19]  1
    x[18]     packing[21]  129
    x[18]     packing[22]  93
    x[18]     packing[23]  166
    x[18]     packing[24]  36
    x[18]     packing[25]  39
    x[18]     packing[26]  29
    x[18]     packing[27]  198
    x[18]     packing[29]  132
    x[18]     packing[30]  86
    x[18]     packing[31]  103
    x[18]     packing[32]  20
    x[18]     packing[33]  109
    x[18]     packing[35]  181
    x[18]     packing[36]  109
    x[18]     packing[38]  134
    x[18]     packing[41]  49
    x[18]     packing[42]  90
    x[18]     packing[43]  142
    x[18]     packing[45]  138
    x[18]     packing[46]  73
    x[18]     packing[47]  1
    x[18]     packing[48]  133
    x[18]     packing[49]  191
    x[18]     R55       1
    x[19]     OBJ       122
    x[19]     packing[0]  13
    x[19]     packing[1]  180
    x[19]     packing[3]  58
    x[19]     packing[4]  139
    x[19]     packing[5]  153
    x[19]     packing[6]  190
    x[19]     packing[7]  190
    x[19]     packing[8]  68
    x[19]     packing[10]  194
    x[19]     packing[11]  123
    x[19]     packing[12]  31
    x[19]     packing[13]  179
    x[19]     packing[14]  159
    x[19]     packing[15]  133
    x[19]     packing[17]  64
    x[19]     packing[18]  131
    x[19]     packing[19]  59
    x[19]     packing[20]  21
    x[19]     packing[22]  148
    x[19]     packing[23]  95
    x[19]     packing[24]  111
    x[19]     packing[26]  29
    x[19]     packing[27]  139
    x[19]     packing[28]  27
    x[19]     packing[30]  28
    x[19]     packing[31]  145
    x[19]     packing[32]  34
    x[19]     packing[34]  183
    x[19]     packing[35]  6
    x[19]     packing[36]  89
    x[19]     packing[37]  198
    x[19]     packing[38]  186
    x[19]     packing[39]  111
    x[19]     packing[40]  96
    x[19]     packing[41]  132
    x[19]     packing[44]  78
    x[19]     packing[45]  11
    x[19]     packing[48]  37
    x[19]     packing[49]  36
    x[19]     R55       1
    x[20]     OBJ       141
    x[20]     packing[1]  131
    x[20]     packing[2]  173
    x[20]     packing[3]  95
    x[20]     packing[5]  139
    x[20]     packing[6]  178
    x[20]     packing[8]  193
    x[20]     packing[9]  118
    x[20]     packing[10]  178
    x[20]     packing[11]  106
    x[20]     packing[12]  126
    x[20]     packing[14]  140
    x[20]     packing[15]  33
    x[20]     packing[16]  82
    x[20]     packing[17]  142
    x[20]     packing[18]  161
    x[20]     packing[19]  83
    x[20]     packing[20]  102
    x[20]     packing[22]  160
    x[20]     packing[23]  57
    x[20]     packing[24]  121
    x[20]     packing[25]  51
    x[20]     packing[27]  160
    x[20]     packing[28]  75
    x[20]     packing[29]  113
    x[20]     packing[30]  123
    x[20]     packing[31]  143
    x[20]     packing[32]  157
    x[20]     packing[33]  108
    x[20]     packing[34]  106
    x[20]     packing[35]  90
    x[20]     packing[36]  110
    x[20]     packing[37]  176
    x[20]     packing[38]  90
    x[20]     packing[39]  148
    x[20]     packing[40]  194
    x[20]     packing[41]  167
    x[20]     packing[42]  81
    x[20]     packing[43]  23
    x[20]     packing[44]  23
    x[20]     packing[45]  43
    x[20]     packing[46]  171
    x[20]     packing[48]  74
    x[20]     packing[49]  144
    MARKER    'MARKER'                 'INTEND'
RHS
    RHS1      packing[0]  421
    RHS1      packing[1]  685
    RHS1      packing[2]  679
    RHS1      packing[3]  703
    RHS1      packing[4]  736
    RHS1      packing[5]  900
    RHS1      packing[6]  1029
    RHS1      packing[7]  927
    RHS1      packing[8]  901
    RHS1      packing[9]  530
    RHS1      packing[10]  979
    RHS1      packing[11]  639
    RHS1      packing[12]  854
    RHS1      packing[13]  771
    RHS1      packing[14]  920
    RHS1      packing[15]  951
    RHS1      packing[16]  819
    RHS1      packing[17]  865
    RHS1      packing[18]  705
    RHS1      packing[19]  609
    RHS1      packing[20]  746
    RHS1      packing[21]  539
    RHS1      packing[22]  939
    RHS1      packing[23]  787
    RHS1      packing[24]  778
    RHS1      packing[25]  766
    RHS1      packing[26]  436
    RHS1      packing[27]  890
    RHS1      packing[28]  539
    RHS1      packing[29]  714
    RHS1      packing[30]  797
    RHS1      packing[31]  1060
    RHS1      packing[32]  646
    RHS1      packing[33]  702
    RHS1      packing[34]  734
    RHS1      packing[35]  953
    RHS1      packing[36]  651
    RHS1      packing[37]  779
    RHS1      packing[38]  651
    RHS1      packing[39]  846
    RHS1      packing[40]  809
    RHS1      packing[41]  1011
    RHS1      packing[42]  814
    RHS1      packing[43]  737
    RHS1      packing[44]  727
    RHS1      packing[45]  677
    RHS1      packing[46]  692
    RHS1      packing[47]  563
    RHS1      packing[48]  863
    RHS1      packing[49]  658
    RHS1      R55       6
BOUNDS
 BV BND1      x[1]    
 BV BND1      x[2]    
 BV BND1      x[3]    
 BV BND1      x[4]    
 BV BND1      x[5]    
 BV BND1      x[6]    
 BV BND1      x[7]    
 BV BND1      x[8]    
 BV BND1      x[9]    
 BV BND1      x[10]   
 BV BND1      x[11]   
 BV BND1      x[12]   
 BV BND1      x[13]   
 BV BND1      x[14]   
 BV BND1      x[15]   
 BV BND1      x[16]   
 BV BND1      x[17]   
 BV BND1      x[18]   
 BV BND1      x[19]   
 BV BND1      x[20]   
ENDATA
